(set-option :produce-models true)
(set-logic QF_UF)
(declare-fun p50() Bool)
(declare-fun p18() Bool)
(declare-fun p0() Bool)
(declare-fun p54() Bool)
(declare-fun p36() Bool)
(declare-fun p11() Bool)
(declare-fun p51() Bool)
(declare-fun p47() Bool)
(declare-fun p23() Bool)
(declare-fun p15() Bool)
(declare-fun p13() Bool)
(declare-fun p19() Bool)
(declare-fun p22() Bool)
(declare-fun p49() Bool)
(declare-fun p10() Bool)
(declare-fun p56() Bool)
(declare-fun p32() Bool)
(declare-fun p46() Bool)
(declare-fun p35() Bool)
(declare-fun p45() Bool)
(declare-fun p1() Bool)
(declare-fun p17() Bool)
(declare-fun p41() Bool)
(declare-fun p16() Bool)
(declare-fun p52() Bool)
(declare-fun p28() Bool)
(declare-fun p40() Bool)
(declare-fun p38() Bool)
(declare-fun p43() Bool)
(declare-fun p12() Bool)
(declare-fun p20() Bool)
(declare-fun p37() Bool)
(declare-fun p3() Bool)
(declare-fun p30() Bool)
(declare-fun p27() Bool)
(declare-fun p57() Bool)
(declare-fun p14() Bool)
(declare-fun p2() Bool)
(declare-fun p31() Bool)
(declare-fun p5() Bool)
(declare-fun p29() Bool)
(declare-fun p9() Bool)
(declare-fun p34() Bool)
(declare-fun p7() Bool)
(declare-fun p44() Bool)
(declare-fun p39() Bool)
(declare-fun p25() Bool)
(declare-fun p21() Bool)
(declare-fun p4() Bool)
(declare-fun p26() Bool)
(declare-fun p59() Bool)
(declare-fun p48() Bool)
(declare-fun p8() Bool)
(declare-fun p42() Bool)
(declare-fun p24() Bool)
(declare-fun p6() Bool)
(declare-fun p53() Bool)
(declare-fun p55() Bool)
(declare-fun p33() Bool)
(declare-fun p58() Bool)
(assert
(and (or (not p50) (not p18) (not p0)) (or p54 p36 (not p11)) (or p51 p47 (not p23)) (or (not p15) (not p13) p19) (or (not p22) p19 p49) (or (not p10) p56 p32) (or p46 p35 (not p47)) (or (not p23) p49 p32) (or (not p45) (not p1) p17) (or (not p41) (not p16) (not p52)) (or (not p49) p28 p40) (or p16 (not p38) (not p43)) (or (not p12) (not p20) p37) (or p1 p12 (not p3)) (or p22 (not p50) (not p30)) (or p43 (not p35) p37) (or (not p12) p27 p57) (or p13 p35 p14) (or (not p43) (not p49) (not p2)) (or (not p36) (not p32) p51) (or p31 (not p40) (not p5)) (or (not p31) (not p29) (not p9)) (or (not p16) p56 p43) (or (not p23) p47 p10) (or (not p20) p27 (not p19)) (or (not p29) (not p46) p35) (or (not p34) (not p52) (not p16)) (or (not p52) p7 (not p10)) (or (not p41) (not p50) p19) (or p29 p16 p1) (or p2 p44 p37) (or (not p39) (not p19) (not p54)) (or (not p43) p57 p38) (or (not p19) (not p49) (not p37)) (or p39 (not p39) p25) (or (not p45) p1 (not p21)) (or p30 p4 p35) (or p54 (not p7) (not p26)) (or p49 p50 p0) (or p19 (not p52) p36) (or (not p59) p26 p1) (or p27 p40 (not p1)) (or (not p11) p48 (not p39)) (or (not p13) p56 p25) (or p16 (not p49) p1) (or (not p50) (not p27) (not p54)) (or (not p7) p3 (not p57)) (or (not p48) p28 (not p13)) (or (not p8) p28 p18) (or p20 (not p40) (not p1)) (or p5 p10 p52) (or p14 p38 p47) (or p17 p1 (not p48)) (or (not p42) (not p13) (not p26)) (or (not p34) p49 (not p52)) (or (not p59) p46 (not p43)) (or p31 p12 p59) (or (not p24) (not p34) (not p4)) (or (not p24) (not p9) (not p44)) (or (not p48) (not p6) (not p5)) (or (not p41) (not p40) p54) (or (not p8) p11 (not p15)) (or (not p47) p6 p43) (or p27 p39 (not p47)) (or p50 (not p49) (not p17)) (or (not p18) p18 p40) (or (not p27) (not p35) p38) (or (not p14) p53 (not p11)) (or (not p49) p19 p35) (or p43 (not p55) (not p45)) (or p13 (not p13) p53) (or p53 (not p53) (not p34)) (or (not p19) p27 (not p31)) (or p34 p8 p6) (or p3 (not p2) (not p15)) (or (not p12) (not p47) p10) (or (not p35) p31 (not p34)) (or (not p23) (not p17) (not p14)) (or p28 (not p53) (not p28)) (or (not p26) (not p59) p50) (or p13 (not p45) (not p2)) (or p42 (not p21) (not p1)) (or (not p41) p8 p9) (or p32 (not p6) p32) (or p48 (not p49) p51) (or (not p8) (not p28) p34) (or p43 p2 p55) (or p18 p13 (not p37)) (or p49 (not p47) (not p16)) (or (not p25) p12 p21) (or p22 (not p20) p2) (or (not p48) p42 p5) (or p38 (not p53) p52) (or (not p50) (not p16) p4) (or p3 (not p34) p57) (or (not p54) p7 (not p19)) (or p50 p25 p8) (or (not p31) (not p56) (not p30)) (or p18 p54 p0) (or (not p49) p40 p50) (or (not p52) (not p43) (not p32)) (or (not p16) p11 (not p26)) (or p26 p46 (not p49)) (or (not p9) p34 p30) (or p3 p6 (not p2)) (or (not p21) (not p27) (not p41)) (or (not p18) (not p52) p4) (or (not p15) p22 p16) (or (not p1) (not p34) p20) (or p41 p31 p35) (or (not p50) p31 p37) (or p25 p36 (not p52)) (or (not p33) (not p15) p36) (or p32 (not p31) p12) (or (not p23) (not p12) p47) (or p35 p23 (not p38)) (or (not p9) p4 p14) (or (not p16) p29 (not p34)) (or (not p7) (not p14) (not p8)) (or p2 (not p54) p59) (or p54 p19 (not p54)) (or (not p49) p12 p24) (or p57 p31 (not p32)) (or p3 p50 (not p48)) (or p55 p16 p49) (or (not p38) (not p25) (not p51)) (or (not p1) (not p33) (not p48)) (or p44 p48 (not p10)) (or p57 (not p25) (not p27)) (or (not p48) (not p15) p30) (or p33 p50 p25) (or p38 (not p26) p21) (or (not p30) (not p45) (not p7)) (or (not p23) (not p51) p56) (or (not p12) p20 (not p9)) (or p51 p17 (not p17)) (or p24 p25 p7) (or (not p56) p22 p24) (or p28 (not p16) p30) (or p36 p58 p43) (or p33 p53 p2) (or (not p42) p55 (not p39)) (or p39 p22 p41) (or (not p17) p7 (not p52)) (or p33 (not p59) (not p40)) (or (not p45) (not p29) (not p27)) (or p38 (not p34) p6) (or (not p41) (not p14) (not p28)) (or p8 p20 p1) (or (not p28) (not p35) p22) (or (not p19) (not p22) p34) (or (not p17) (not p44) (not p37)) (or p2 (not p31) p38) (or (not p19) (not p10) (not p43)) (or (not p48) p4 (not p13)) (or (not p49) p30 (not p56)) (or p52 p14 p1) (or (not p24) (not p36) p48) (or p18 (not p30) (not p32)) (or (not p12) p44 (not p21)) (or p57 (not p28) (not p15)) (or p16 p54 p55) (or (not p39) p41 p4) (or p1 (not p48) p47) (or (not p4) (not p17) p5) (or p31 p40 p31) (or (not p32) (not p12) (not p21)) (or (not p7) p16 (not p58)) (or p29 (not p27) (not p24)) (or p33 (not p58) p9) (or p36 (not p35) p53) (or (not p47) p18 (not p41)) (or p35 p41 (not p42)) (or p48 (not p11) (not p57)) (or (not p21) (not p41) p31) (or (not p17) p47 (not p28)) (or (not p21) (not p22) p26) (or (not p1) p33 p54) (or (not p39) p49 p36) (or p28 (not p26) (not p12)) (or p55 (not p59) p40) (or p23 (not p5) (not p37)) (or p34 p29 p54) (or (not p32) (not p14) (not p11)) (or p52 (not p53) p15) (or (not p8) (not p1) p37) (or p13 (not p29) (not p18)) (or (not p30) p4 (not p35)) (or (not p10) p51 p44) (or (not p12) p0 p33) (or p56 (not p14) p40) (or p48 p48 (not p59)) (or (not p8) (not p25) p59) (or p21 p30 p35) (or p50 p36 p57) (or p39 p46 p3) (or p40 (not p26) (not p16)) (or p16 p37 p21) (or p57 (not p41) (not p56)) (or p44 p26 (not p37)) (or (not p0) (not p8) p48) (or (not p17) p8 p30) (or (not p11) p33 p57) (or (not p30) (not p35) (not p32)) (or (not p56) (not p34) (not p15)) (or p25 p11 p43) (or p59 p12 (not p20)) (or p23 p2 p27) (or p16 p55 p44) (or (not p18) p41 p41) (or p37 p11 p3) (or (not p8) (not p36) p32) (or (not p21) (not p21) (not p59)) (or (not p5) (not p36) p35) (or (not p35) p43 p48) (or (not p19) p50 p2) (or (not p54) p45 p29) (or (not p0) (not p50) (not p57)) (or p42 (not p11) p49) (or p51 p21 (not p25)) (or p25 p50 (not p17)) (or p18 (not p38) (not p55)) (or p44 (not p8) (not p37)) (or p46 p33 p44) (or p16 (not p57) p0) (or (not p11) (not p55) p49) (or p51 p8 p40) (or (not p47) (not p55) (not p14)) (or (not p53) (not p29) p33) (or (not p10) p42 (not p43)) (or p19 (not p16) p27) (or (not p47) p11 (not p26)) (or p4 (not p32) p32) (or (not p11) p19 p37) (or p33 (not p51) p47) (or (not p3) (not p0) (not p57)) (or p3 (not p39) (not p28)) (or p7 p57 (not p1)) (or p13 p0 (not p56)) (or (not p49) (not p23) (not p2)) (or (not p44) p53 (not p19)) (or p54 (not p19) p33) (or (not p10) p27 p29) (or (not p7) (not p51) p37) (or p35 (not p11) p57) (or (not p2) p2 (not p1)) (or p32 (not p25) (not p47)) (or (not p17) (not p55) p1) (or p59 p21 (not p21)) (or (not p14) p30 (not p9)) (or p7 p2 (not p16)) (or p39 p55 p0))
)
(check-sat)
(get-model)
